all_keccak_equations/0x887AFB97B880CFAD_0x1B9BD7D326B0CA70_0x3A09AB50024802C3_0x345722D2074C3F87_40/maximal_linearize.log

# variables: 2240
# non-linear: 256

        0.00 - Start computation

        0.00 - target guess 160
Set parameter Username
Academic license - for non-commercial use only - expires 2022-06-20
Set parameter Threads to value 64
Set parameter MIPFocus to value 3
        0.04 - there are 116 short nonlinear (11) polynomial
Set parameter TimeLimit to value 1800
Gurobi Optimizer version 9.5.0 build v9.5.0rc5 (linux64)
Thread count: 32 physical cores, 64 logical processors, using up to 64 threads
Optimize a model with 5334 rows, 2496 columns and 16679 nonzeros
Model fingerprint: 0x2e273801
Variable types: 0 continuous, 2496 integer (2496 binary)
Coefficient statistics:
  Matrix range     [1e+00, 1e+00]
  Objective range  [1e+00, 1e+00]
  Bounds range     [1e+00, 1e+00]
  RHS range        [3e+01, 2e+02]
Presolve removed 4056 rows and 1324 columns
Presolve time: 0.01s
Presolved: 1278 rows, 1172 columns, 4911 nonzeros
Variable types: 0 continuous, 1172 integer (1101 binary)
Root relaxation presolved: 1278 rows, 1172 columns, 4911 nonzeros


Root relaxation: objective 3.400000e+01, 1524 iterations, 0.11 seconds (0.05 work units)

    Nodes    |    Current Node    |     Objective Bounds      |     Work
 Expl Unexpl |  Obj  Depth IntInf | Incumbent    BestBd   Gap | It/Node Time

*    0     0               0      34.0000000   34.00000  0.00%     -    0s

Explored 1 nodes (3375 simplex iterations) in 0.42 seconds (0.19 work units)
Thread count was 64 (of 64 available processors)

Solution count 1: 34 

Optimal solution found (tolerance 1.00e-04)
Best objective 3.400000000000e+01, best bound 3.400000000000e+01, gap 0.0000%
        0.46 - 	Solution num 1:
guessed:  x653 x654 x655 x660 x661 x663 x673 x678 x682 x698 x760 x784 x785 x790 x803 x812 x828 x842 x844 x846 x926 x1008 x1009 x1040 x1058 x1084 x1097 x1102 x1122 x1124 x1136 x1142 x1181 x1201 x1215 x1216 x1217 x1219 x1274 x1275 x1333 x1354 x1355 x1356 x1375 x1390 x1444 x1450 x1452 x1474 x1477 x1494 x1498 x1502 x1503 x1504 x1519 x1521 x1524 x1528 x1532 x1533 x1539 x1553 x1574 x1575 x1576 x1600 x1602 x1606 x1611 x1614 x1618 x1620 x1624 x1639 x1642 x1643 x1644 x1645 x1657 x1662 x1674 x1678 x1696 x1698 x1702 x1703 x1705 x1707 x1717 x1722 x1724 x1726 x1747 x1769 x1772 x1790 x1791 x1793 x1795 x1805 x1810 x1812 x1814 x1826 x1827 x1829 x1830 x1848 x1849 x1851 x1854 x1868 x1882 x1887 x1889 x1924 x1926 x1982 x1994 x1996 x1997 x2003 x2004 x2006 x2016 x2020 x2021 x2040 x2041 x2048 x2052 x2065 x2067 x2072 x2076 x2109 x2114 x2115 x2117 x2136 x2140 x2141 x2142 x2144 x2159 x2161 x2175 x2182 x2183 x2187 x2189 x2192 x2211 x2223 x2226 x2227 x2229 x2236[160]
linearized equations:  14 15 20 21 23 40 42 57 60 64 65 86 100 104 123 128 129 141 146 166 186 192 204 207 208 210 227 229 234 235 237 247 252 254
        0.47 - target guess 159
Set parameter Username
Academic license - for non-commercial use only - expires 2022-06-20
Set parameter Threads to value 64
Set parameter MIPFocus to value 3
        0.49 - there are 116 short nonlinear (11) polynomial
Set parameter TimeLimit to value 1800
Gurobi Optimizer version 9.5.0 build v9.5.0rc5 (linux64)
Thread count: 32 physical cores, 64 logical processors, using up to 64 threads
Optimize a model with 5334 rows, 2496 columns and 16679 nonzeros
Model fingerprint: 0xc2fda2bf
Variable types: 0 continuous, 2496 integer (2496 binary)
Coefficient statistics:
  Matrix range     [1e+00, 1e+00]
  Objective range  [1e+00, 1e+00]
  Bounds range     [1e+00, 1e+00]
  RHS range        [4e+01, 2e+02]
Presolve removed 4056 rows and 1324 columns
Presolve time: 0.01s
Presolved: 1278 rows, 1172 columns, 4911 nonzeros
Variable types: 0 continuous, 1172 integer (1101 binary)
Root relaxation presolved: 1278 rows, 1172 columns, 4911 nonzeros


Root relaxation: objective 3.500000e+01, 1637 iterations, 0.06 seconds (0.05 work units)

    Nodes    |    Current Node    |     Objective Bounds      |     Work
 Expl Unexpl |  Obj  Depth IntInf | Incumbent    BestBd   Gap | It/Node Time

*    0     0               0      35.0000000   35.00000  0.00%     -    0s

Explored 1 nodes (2277 simplex iterations) in 0.35 seconds (0.17 work units)
Thread count was 64 (of 64 available processors)

Solution count 1: 35 

Optimal solution found (tolerance 1.00e-04)
Best objective 3.500000000000e+01, best bound 3.500000000000e+01, gap 0.0000%
        0.84 - 	Solution num 1:
guessed:  x653 x654 x655 x660 x673 x678 x682 x698 x759 x781 x785 x790 x803 x808 x828 x842 x844 x908 x926 x958 x980 x1008 x1009 x1040 x1055 x1061 x1065 x1069 x1084 x1097 x1102 x1103 x1107 x1122 x1136 x1142 x1153 x1181 x1186 x1201 x1203 x1215 x1217 x1219 x1238 x1252 x1287 x1314 x1336 x1354 x1355 x1356 x1358 x1371 x1375 x1389 x1394 x1444 x1477 x1489 x1494 x1498 x1502 x1503 x1504 x1519 x1521 x1528 x1533 x1535 x1536 x1571 x1575 x1576 x1582 x1585 x1600 x1606 x1611 x1612 x1614 x1617 x1618 x1620 x1639 x1642 x1643 x1645 x1657 x1660 x1674 x1675 x1702 x1703 x1705 x1707 x1717 x1722 x1724 x1747 x1769 x1772 x1787 x1791 x1792 x1793 x1795 x1805 x1808 x1810 x1826 x1830 x1845 x1849 x1851 x1854 x1868 x1882 x1885 x1887 x1889 x1923 x1924 x1926 x1982 x1994 x1996 x1997 x2003 x2006 x2016 x2021 x2027 x2041 x2048 x2052 x2065 x2067 x2072 x2110 x2115 x2117 x2136 x2140 x2141 x2142 x2144 x2161 x2175 x2182 x2183 x2187 x2189 x2203 x2223 x2226 x2227 x2229 x2236[159]
linearized equations:  11 15 20 21 23 25 38 40 42 56 60 64 65 86 100 104 123 125 128 129 141 146 166 186 204 208 210 227 229 234 235 237 247 252 254
        0.85 - target guess 158
Set parameter Username
Academic license - for non-commercial use only - expires 2022-06-20
Set parameter Threads to value 64
Set parameter MIPFocus to value 3
        0.87 - there are 116 short nonlinear (11) polynomial
Set parameter TimeLimit to value 1800
Gurobi Optimizer version 9.5.0 build v9.5.0rc5 (linux64)
Thread count: 32 physical cores, 64 logical processors, using up to 64 threads
Optimize a model with 5334 rows, 2496 columns and 16679 nonzeros
Model fingerprint: 0x42e72d4d
Variable types: 0 continuous, 2496 integer (2496 binary)
Coefficient statistics:
  Matrix range     [1e+00, 1e+00]
  Objective range  [1e+00, 1e+00]
  Bounds range     [1e+00, 1e+00]
  RHS range        [4e+01, 2e+02]
Presolve removed 4056 rows and 1324 columns
Presolve time: 0.01s
Presolved: 1278 rows, 1172 columns, 4911 nonzeros
Variable types: 0 continuous, 1172 integer (1101 binary)
Root relaxation presolved: 1278 rows, 1172 columns, 4911 nonzeros


Root relaxation: objective 3.600000e+01, 1600 iterations, 0.06 seconds (0.05 work units)

    Nodes    |    Current Node    |     Objective Bounds      |     Work
 Expl Unexpl |  Obj  Depth IntInf | Incumbent    BestBd   Gap | It/Node Time

     0     0   36.00000    0   30          -   36.00000      -     -    0s
H    0     0                      36.0000000   36.00000  0.00%     -    0s

Cutting planes:
  Gomory: 1
  Cover: 1
  MIR: 9
  StrongCG: 6
  Flow cover: 5
  Mod-K: 3
  RLT: 2

Explored 1 nodes (3903 simplex iterations) in 0.54 seconds (0.30 work units)
Thread count was 64 (of 64 available processors)

Solution count 1: 36 

Optimal solution found (tolerance 1.00e-04)
Best objective 3.600000000000e+01, best bound 3.600000000000e+01, gap 0.0000%
        1.41 - 	Solution num 1:
guessed:  x647 x653 x654 x655 x660 x673 x678 x682 x686 x698 x749 x760 x785 x803 x808 x816 x828 x842 x844 x850 x908 x915 x926 x980 x1008 x1009 x1028 x1040 x1055 x1061 x1065 x1084 x1097 x1102 x1103 x1105 x1122 x1124 x1136 x1138 x1142 x1153 x1181 x1201 x1203 x1209 x1215 x1217 x1219 x1238 x1252 x1287 x1336 x1356 x1375 x1381 x1389 x1394 x1444 x1474 x1477 x1492 x1494 x1498 x1502 x1503 x1504 x1519 x1521 x1528 x1536 x1553 x1571 x1575 x1576 x1600 x1604 x1606 x1611 x1612 x1614 x1617 x1618 x1620 x1639 x1642 x1643 x1645 x1657 x1666 x1674 x1675 x1702 x1703 x1705 x1717 x1722 x1724 x1733 x1747 x1769 x1772 x1787 x1791 x1793 x1805 x1810 x1818 x1826 x1827 x1830 x1845 x1849 x1851 x1854 x1868 x1882 x1887 x1889 x1923 x1949 x1982 x1994 x1996 x1997 x2003 x2016 x2021 x2027 x2031 x2041 x2048 x2052 x2065 x2067 x2072 x2109 x2110 x2114 x2115 x2117 x2136 x2141 x2142 x2161 x2167 x2175 x2182 x2183 x2187 x2190 x2203 x2220 x2223 x2226 x2227 x2229 x2236[158]
linearized equations:  11 15 20 21 23 40 42 48 56 57 60 64 65 86 100 104 123 125 129 141 146 154 166 186 196 204 207 208 210 227 229 234 235 247 252 254
        1.41 - target guess 157
Set parameter Username
Academic license - for non-commercial use only - expires 2022-06-20
Set parameter Threads to value 64
Set parameter MIPFocus to value 3
        1.44 - there are 116 short nonlinear (11) polynomial
Set parameter TimeLimit to value 1800
Gurobi Optimizer version 9.5.0 build v9.5.0rc5 (linux64)
Thread count: 32 physical cores, 64 logical processors, using up to 64 threads
Optimize a model with 5334 rows, 2496 columns and 16679 nonzeros
Model fingerprint: 0x203dcdf0
Variable types: 0 continuous, 2496 integer (2496 binary)
Coefficient statistics:
  Matrix range     [1e+00, 1e+00]
  Objective range  [1e+00, 1e+00]
  Bounds range     [1e+00, 1e+00]
  RHS range        [4e+01, 2e+02]
Presolve removed 4056 rows and 1324 columns
Presolve time: 0.01s
Presolved: 1278 rows, 1172 columns, 4911 nonzeros
Variable types: 0 continuous, 1172 integer (1101 binary)
Root relaxation presolved: 1278 rows, 1172 columns, 4911 nonzeros


Root relaxation: objective 3.700000e+01, 1723 iterations, 0.07 seconds (0.06 work units)

    Nodes    |    Current Node    |     Objective Bounds      |     Work
 Expl Unexpl |  Obj  Depth IntInf | Incumbent    BestBd   Gap | It/Node Time

*    0     0               0      37.0000000   37.00000  0.00%     -    0s

Explored 1 nodes (2429 simplex iterations) in 0.45 seconds (0.22 work units)
Thread count was 64 (of 64 available processors)

Solution count 1: 37 

Optimal solution found (tolerance 1.00e-04)
Best objective 3.700000000000e+01, best bound 3.700000000000e+01, gap 0.0000%
        1.88 - 	Solution num 1:
guessed:  x653 x654 x655 x660 x663 x673 x678 x698 x699 x760 x762 x785 x786 x803 x808 x828 x842 x844 x846 x908 x926 x980 x1008 x1009 x1040 x1065 x1084 x1086 x1097 x1103 x1105 x1122 x1138 x1142 x1153 x1156 x1181 x1201 x1203 x1217 x1252 x1254 x1255 x1333 x1336 x1355 x1356 x1371 x1375 x1394 x1444 x1450 x1452 x1474 x1477 x1489 x1494 x1502 x1504 x1521 x1528 x1531 x1536 x1557 x1575 x1576 x1578 x1582 x1600 x1606 x1611 x1612 x1614 x1615 x1617 x1618 x1620 x1639 x1642 x1643 x1645 x1657 x1660 x1674 x1677 x1679 x1702 x1703 x1705 x1717 x1720 x1722 x1724 x1730 x1733 x1747 x1768 x1769 x1772 x1786 x1791 x1805 x1810 x1826 x1827 x1829 x1830 x1831 x1849 x1854 x1868 x1882 x1885 x1887 x1889 x1908 x1923 x1983 x1996 x1997 x1999 x2002 x2003 x2016 x2021 x2041 x2042 x2048 x2052 x2065 x2067 x2072 x2086 x2091 x2093 x2110 x2117 x2136 x2141 x2142 x2161 x2178 x2182 x2183 x2184 x2187 x2189 x2190 x2203 x2208 x2223 x2224 x2226 x2227 x2229 x2233 x2236[157]
linearized equations:  15 20 21 23 38 40 42 56 57 59 60 64 65 86 100 104 123 125 128 129 141 146 166 167 186 188 207 208 209 210 227 229 234 235 247 252 254
        1.89 - target guess 156
Set parameter Username
Academic license - for non-commercial use only - expires 2022-06-20
Set parameter Threads to value 64
Set parameter MIPFocus to value 3
        1.91 - there are 116 short nonlinear (11) polynomial
Set parameter TimeLimit to value 1800
Gurobi Optimizer version 9.5.0 build v9.5.0rc5 (linux64)
Thread count: 32 physical cores, 64 logical processors, using up to 64 threads
Optimize a model with 5334 rows, 2496 columns and 16679 nonzeros
Model fingerprint: 0x140084fc
Variable types: 0 continuous, 2496 integer (2496 binary)
Coefficient statistics:
  Matrix range     [1e+00, 1e+00]
  Objective range  [1e+00, 1e+00]
  Bounds range     [1e+00, 1e+00]
  RHS range        [4e+01, 2e+02]
Presolve removed 4056 rows and 1324 columns
Presolve time: 0.01s
Presolved: 1278 rows, 1172 columns, 4911 nonzeros
Variable types: 0 continuous, 1172 integer (1101 binary)
Root relaxation presolved: 1278 rows, 1172 columns, 4911 nonzeros


Root relaxation: objective 3.800000e+01, 1753 iterations, 0.07 seconds (0.06 work units)

    Nodes    |    Current Node    |     Objective Bounds      |     Work
 Expl Unexpl |  Obj  Depth IntInf | Incumbent    BestBd   Gap | It/Node Time

*    0     0               0      38.0000000   38.00000  0.00%     -    0s

Explored 1 nodes (3442 simplex iterations) in 0.44 seconds (0.24 work units)
Thread count was 64 (of 64 available processors)

Solution count 1: 38 

Optimal solution found (tolerance 1.00e-04)
Best objective 3.800000000000e+01, best bound 3.800000000000e+01, gap 0.0000%
        2.36 - 	Solution num 1:
guessed:  x653 x654 x655 x660 x663 x669 x673 x678 x682 x698 x749 x785 x790 x803 x808 x816 x828 x842 x844 x850 x908 x915 x1008 x1009 x1026 x1028 x1040 x1065 x1084 x1097 x1103 x1105 x1111 x1122 x1142 x1190 x1201 x1203 x1209 x1225 x1238 x1355 x1356 x1375 x1379 x1394 x1444 x1450 x1452 x1457 x1477 x1489 x1492 x1494 x1502 x1504 x1521 x1528 x1531 x1536 x1542 x1575 x1576 x1578 x1581 x1600 x1606 x1611 x1612 x1614 x1617 x1618 x1620 x1641 x1642 x1643 x1644 x1645 x1651 x1657 x1668 x1678 x1702 x1703 x1705 x1711 x1712 x1717 x1722 x1724 x1725 x1730 x1733 x1741 x1747 x1760 x1769 x1772 x1791 x1793 x1805 x1810 x1812 x1818 x1830 x1849 x1854 x1868 x1882 x1887 x1889 x1893 x1897 x1923 x1946 x1949 x1982 x1983 x1996 x1997 x1998 x2003 x2016 x2021 x2026 x2031 x2041 x2048 x2049 x2052 x2065 x2067 x2072 x2086 x2095 x2098 x2117 x2141 x2142 x2161 x2164 x2169 x2178 x2182 x2183 x2187 x2189 x2190 x2196 x2206 x2208 x2211 x2223 x2227 x2229 x2233[156]
linearized equations:  15 20 21 23 29 40 42 46 48 60 64 65 73 86 89 104 123 125 128 129 141 146 152 154 166 186 188 196 198 208 210 227 229 234 235 247 252 254
        2.36 - target guess 155
Set parameter Username
Academic license - for non-commercial use only - expires 2022-06-20
Set parameter Threads to value 64
Set parameter MIPFocus to value 3
        2.38 - there are 116 short nonlinear (11) polynomial
Set parameter TimeLimit to value 1800
Gurobi Optimizer version 9.5.0 build v9.5.0rc5 (linux64)
Thread count: 32 physical cores, 64 logical processors, using up to 64 threads
Optimize a model with 5334 rows, 2496 columns and 16679 nonzeros
Model fingerprint: 0x8b62fcac
Variable types: 0 continuous, 2496 integer (2496 binary)
Coefficient statistics:
  Matrix range     [1e+00, 1e+00]
  Objective range  [1e+00, 1e+00]
  Bounds range     [1e+00, 1e+00]
  RHS range        [4e+01, 2e+02]
Presolve removed 4056 rows and 1324 columns
Presolve time: 0.01s
Presolved: 1278 rows, 1172 columns, 4911 nonzeros
Variable types: 0 continuous, 1172 integer (1101 binary)
Root relaxation presolved: 1278 rows, 1172 columns, 4911 nonzeros


Root relaxation: objective 3.900000e+01, 1871 iterations, 0.09 seconds (0.08 work units)

    Nodes    |    Current Node    |     Objective Bounds      |     Work
 Expl Unexpl |  Obj  Depth IntInf | Incumbent    BestBd   Gap | It/Node Time

H    0     0                      39.0000000  116.00000   197%     -    0s
     0     0          -    0        39.00000   39.00000  0.00%     -    0s

Explored 1 nodes (2910 simplex iterations) in 0.52 seconds (0.28 work units)
Thread count was 64 (of 64 available processors)

Solution count 1: 39 

Optimal solution found (tolerance 1.00e-04)
Best objective 3.900000000000e+01, best bound 3.900000000000e+01, gap 0.0000%
        2.90 - 	Solution num 1:
guessed:  x655 x673 x678 x682 x684 x698 x749 x783 x785 x803 x808 x814 x816 x828 x842 x844 x848 x850 x908 x913 x915 x1008 x1009 x1026 x1028 x1040 x1065 x1084 x1085 x1097 x1103 x1105 x1122 x1142 x1181 x1201 x1203 x1209 x1216 x1238 x1273 x1356 x1374 x1379 x1394 x1444 x1477 x1485 x1489 x1492 x1502 x1504 x1522 x1528 x1531 x1536 x1576 x1578 x1600 x1602 x1604 x1606 x1612 x1614 x1618 x1636 x1637 x1642 x1643 x1645 x1657 x1663 x1666 x1668 x1678 x1697 x1702 x1703 x1705 x1717 x1724 x1725 x1726 x1730 x1733 x1747 x1754 x1760 x1769 x1772 x1791 x1793 x1810 x1811 x1812 x1818 x1830 x1849 x1854 x1865 x1882 x1887 x1888 x1889 x1890 x1893 x1895 x1897 x1922 x1923 x1941 x1982 x1996 x1998 x2003 x2016 x2017 x2021 x2024 x2027 x2031 x2041 x2043 x2048 x2049 x2052 x2067 x2072 x2076 x2086 x2090 x2093 x2103 x2117 x2141 x2142 x2162 x2163 x2169 x2178 x2182 x2183 x2187 x2190 x2196 x2201 x2204 x2205 x2208 x2211 x2223 x2226 x2227 x2229 x2236[155]
linearized equations:  15 20 21 23 40 41 42 44 46 48 60 64 65 86 104 123 125 129 141 146 147 150 152 154 166 188 192 196 198 208 210 227 229 234 235 247 252 254 255
        2.90 - target guess 154
Set parameter Username
Academic license - for non-commercial use only - expires 2022-06-20
Set parameter Threads to value 64
Set parameter MIPFocus to value 3
        2.93 - there are 116 short nonlinear (11) polynomial
Set parameter TimeLimit to value 1800
Gurobi Optimizer version 9.5.0 build v9.5.0rc5 (linux64)
Thread count: 32 physical cores, 64 logical processors, using up to 64 threads
Optimize a model with 5334 rows, 2496 columns and 16679 nonzeros
Model fingerprint: 0x3fd6aa0e
Variable types: 0 continuous, 2496 integer (2496 binary)
Coefficient statistics:
  Matrix range     [1e+00, 1e+00]
  Objective range  [1e+00, 1e+00]
  Bounds range     [1e+00, 1e+00]
  RHS range        [4e+01, 2e+02]
Presolve removed 4056 rows and 1324 columns
Presolve time: 0.01s
Presolved: 1278 rows, 1172 columns, 4911 nonzeros
Variable types: 0 continuous, 1172 integer (1101 binary)
Root relaxation presolved: 1278 rows, 1172 columns, 4911 nonzeros


Root relaxation: objective 4.000000e+01, 1937 iterations, 0.10 seconds (0.10 work units)

    Nodes    |    Current Node    |     Objective Bounds      |     Work
 Expl Unexpl |  Obj  Depth IntInf | Incumbent    BestBd   Gap | It/Node Time

     0     0   40.00000    0  297          -   40.00000      -     -    0s
     0     0 -1.000e+100    0  326          - infeasible      -     -    1s

Cutting planes:
  Gomory: 20
  Flow cover: 1
  Zero half: 91

Explored 1 nodes (6042 simplex iterations) in 1.30 seconds (0.71 work units)
Thread count was 64 (of 64 available processors)

Solution count 0
No other solutions better than -1e+100

Model is infeasible
Best objective -, best bound -, gap -
        4.23 - 	Solution num 0:
        4.24 - increase high_eq_constraint to 1

Set parameter Username
Academic license - for non-commercial use only - expires 2022-06-20
Set parameter Threads to value 64
Set parameter MIPFocus to value 3
        4.29 - there are 116 short nonlinear (11) polynomial
Set parameter TimeLimit to value 1800
Gurobi Optimizer version 9.5.0 build v9.5.0rc5 (linux64)
Thread count: 32 physical cores, 64 logical processors, using up to 64 threads
Optimize a model with 5334 rows, 2496 columns and 16679 nonzeros
Model fingerprint: 0x6bd65c74
Variable types: 0 continuous, 2496 integer (2496 binary)
Coefficient statistics:
  Matrix range     [1e+00, 1e+00]
  Objective range  [1e+00, 1e+00]
  Bounds range     [1e+00, 1e+00]
  RHS range        [1e+00, 2e+02]
Presolve removed 975 rows and 975 columns
Presolve time: 0.03s
Presolved: 4359 rows, 1521 columns, 14589 nonzeros
Variable types: 0 continuous, 1521 integer (1521 binary)
Root relaxation presolved: 4359 rows, 1521 columns, 14589 nonzeros


Root relaxation: objective 4.000000e+01, 2640 iterations, 0.32 seconds (0.35 work units)

    Nodes    |    Current Node    |     Objective Bounds      |     Work
 Expl Unexpl |  Obj  Depth IntInf | Incumbent    BestBd   Gap | It/Node Time

     0     0   40.00000    0  834          -   40.00000      -     -    2s
H    0     0                      40.0000000   40.00000  0.00%     -    5s
     0     0   40.00000    0  633   40.00000   40.00000  0.00%     -    6s

Cutting planes:
  Gomory: 10
  Lift-and-project: 4
  Flow cover: 6
  Zero half: 35
  RLT: 3

Explored 1 nodes (16690 simplex iterations) in 6.04 seconds (5.41 work units)
Thread count was 64 (of 64 available processors)

Solution count 1: 40 

Optimal solution found (tolerance 1.00e-04)
Best objective 4.000000000000e+01, best bound 4.000000000000e+01, gap 0.0000%
       10.34 - 	Solution num 1:
guessed:  x673 x678 x679 x680 x684 x749 x790 x803 x808 x814 x816 x828 x842 x843 x844 x846 x848 x850 x908 x913 x915 x1026 x1028 x1040 x1059 x1065 x1085 x1086 x1097 x1122 x1142 x1176 x1181 x1201 x1203 x1209 x1237 x1244 x1354 x1356 x1374 x1450 x1469 x1477 x1489 x1502 x1504 x1522 x1528 x1531 x1536 x1542 x1578 x1582 x1600 x1602 x1606 x1612 x1614 x1617 x1618 x1624 x1637 x1639 x1642 x1643 x1645 x1651 x1657 x1663 x1666 x1678 x1697 x1702 x1705 x1707 x1717 x1722 x1724 x1725 x1726 x1730 x1747 x1754 x1758 x1760 x1772 x1791 x1793 x1795 x1810 x1812 x1818 x1830 x1832 x1849 x1854 x1855 x1882 x1887 x1888 x1889 x1890 x1893 x1895 x1897 x1926 x1942 x1982 x1983 x1998 x2003 x2004 x2006 x2016 x2021 x2022 x2024 x2027 x2031 x2041 x2043 x2048 x2049 x2052 x2054 x2067 x2072 x2076 x2086 x2100 x2103 x2117 x2142 x2144 x2162 x2169 x2178 x2182 x2183 x2187 x2189 x2190 x2192 x2196 x2204 x2205 x2208 x2211 x2220 x2227 x2229 x2233 x2234[154]
linearized equations:  15 20 21 23 40 41 42 44 46 48 60 64 84 86 104 123 125 128 129 141 146 147 150 152 154 166 188 192 196 198 208 210 229 234 235 237 247 252 254 255
       10.34 - target guess 153
Set parameter Username
Academic license - for non-commercial use only - expires 2022-06-20
Set parameter Threads to value 64
Set parameter MIPFocus to value 3
       10.39 - there are 116 short nonlinear (11) polynomial
Set parameter TimeLimit to value 1800
Gurobi Optimizer version 9.5.0 build v9.5.0rc5 (linux64)
Thread count: 32 physical cores, 64 logical processors, using up to 64 threads
Optimize a model with 5334 rows, 2496 columns and 16679 nonzeros
Model fingerprint: 0xece62289
Variable types: 0 continuous, 2496 integer (2496 binary)
Coefficient statistics:
  Matrix range     [1e+00, 1e+00]
  Objective range  [1e+00, 1e+00]
  Bounds range     [1e+00, 1e+00]
  RHS range        [4e+01, 2e+02]
Presolve removed 4056 rows and 1324 columns
Presolve time: 0.01s
Presolved: 1278 rows, 1172 columns, 4911 nonzeros
Variable types: 0 continuous, 1172 integer (1101 binary)
Root relaxation presolved: 1278 rows, 1172 columns, 4911 nonzeros


Root relaxation: infeasible, 2207 iterations, 0.12 seconds (0.12 work units)

    Nodes    |    Current Node    |     Objective Bounds      |     Work
 Expl Unexpl |  Obj  Depth IntInf | Incumbent    BestBd   Gap | It/Node Time

     0     0 infeasible    0               - infeasible      -     -    0s

Explored 1 nodes (2207 simplex iterations) in 0.15 seconds (0.13 work units)
Thread count was 64 (of 64 available processors)

Solution count 0
No other solutions better than -1e+100

Model is infeasible
Best objective -, best bound -, gap -
       10.54 - 	Solution num 0:
       10.54 - increase high_eq_constraint to 1

Set parameter Username
Academic license - for non-commercial use only - expires 2022-06-20
Set parameter Threads to value 64
Set parameter MIPFocus to value 3
       10.57 - there are 116 short nonlinear (11) polynomial
Set parameter TimeLimit to value 1800
Gurobi Optimizer version 9.5.0 build v9.5.0rc5 (linux64)
Thread count: 32 physical cores, 64 logical processors, using up to 64 threads
Optimize a model with 5334 rows, 2496 columns and 16679 nonzeros
Model fingerprint: 0x6089170e
Variable types: 0 continuous, 2496 integer (2496 binary)
Coefficient statistics:
  Matrix range     [1e+00, 1e+00]
  Objective range  [1e+00, 1e+00]
  Bounds range     [1e+00, 1e+00]
  RHS range        [1e+00, 2e+02]
Presolve removed 975 rows and 975 columns
Presolve time: 0.02s
Presolved: 4359 rows, 1521 columns, 14589 nonzeros
Variable types: 0 continuous, 1521 integer (1521 binary)
Root relaxation presolved: 4359 rows, 1521 columns, 14589 nonzeros


Root relaxation: objective 4.100000e+01, 3036 iterations, 0.44 seconds (0.49 work units)

    Nodes    |    Current Node    |     Objective Bounds      |     Work
 Expl Unexpl |  Obj  Depth IntInf | Incumbent    BestBd   Gap | It/Node Time

     0     0   41.00000    0  628          -   41.00000      -     -    1s

Cutting planes:
  Gomory: 12
  Lift-and-project: 6
  Zero half: 9
  RLT: 4

Explored 1 nodes (5490 simplex iterations) in 2.07 seconds (1.38 work units)
Thread count was 64 (of 64 available processors)

Solution count 0
No other solutions better than -1e+100

Model is infeasible
Best objective -, best bound -, gap -
       12.64 - 	Solution num 0:
       12.65 - increase high_eq_constraint to 2

Set parameter Username
Academic license - for non-commercial use only - expires 2022-06-20
Set parameter Threads to value 64
Set parameter MIPFocus to value 3
       12.69 - there are 116 short nonlinear (11) polynomial
Set parameter TimeLimit to value 1800
Gurobi Optimizer version 9.5.0 build v9.5.0rc5 (linux64)
Thread count: 32 physical cores, 64 logical processors, using up to 64 threads
Optimize a model with 5334 rows, 2496 columns and 16679 nonzeros
Model fingerprint: 0x5fec3691
Variable types: 0 continuous, 2496 integer (2496 binary)
Coefficient statistics:
  Matrix range     [1e+00, 1e+00]
  Objective range  [1e+00, 1e+00]
  Bounds range     [1e+00, 1e+00]
  RHS range        [2e+00, 2e+02]
Presolve removed 975 rows and 975 columns
Presolve time: 0.02s
Presolved: 4359 rows, 1521 columns, 14589 nonzeros
Variable types: 0 continuous, 1521 integer (1521 binary)
Root relaxation presolved: 4359 rows, 1521 columns, 14589 nonzeros


Root relaxation: objective 4.100000e+01, 2898 iterations, 0.40 seconds (0.44 work units)

    Nodes    |    Current Node    |     Objective Bounds      |     Work
 Expl Unexpl |  Obj  Depth IntInf | Incumbent    BestBd   Gap | It/Node Time

     0     0   41.00000    0  722          -   41.00000      -     -    2s
     0     0   41.00000    0  685          -   41.00000      -     -    4s
     0     0   41.00000    0  690          -   41.00000      -     -    4s
     0     0   41.00000    0  664          -   41.00000      -     -    6s
     0     0   41.00000    0  664          -   41.00000      -     -    7s
     0     2   41.00000    0  664          -   41.00000      -     -   11s
    23     8   41.00000    5  866          -   41.00000      -  1714   15s
    41     8   41.00000    7 1112          -   41.00000      -  1364   20s
    53    12   41.00000    9 1058          -   41.00000      -  1355   26s
    73     0 infeasible   11               -   41.00000      -  1288   30s

Cutting planes:
  Gomory: 2
  MIR: 1
  Flow cover: 23
  Zero half: 442
  RLT: 349

Explored 75 nodes (120474 simplex iterations) in 30.53 seconds (31.58 work units)
Thread count was 64 (of 64 available processors)

Solution count 0
No other solutions better than -1e+100

Model is infeasible
Best objective -, best bound -, gap -
       43.55 - 	Solution num 0:
       43.55 - increase high_eq_constraint to 3

Set parameter Username
Academic license - for non-commercial use only - expires 2022-06-20
Set parameter Threads to value 64
Set parameter MIPFocus to value 3
       43.60 - there are 116 short nonlinear (11) polynomial
Set parameter TimeLimit to value 1800
Gurobi Optimizer version 9.5.0 build v9.5.0rc5 (linux64)
Thread count: 32 physical cores, 64 logical processors, using up to 64 threads
Optimize a model with 5334 rows, 2496 columns and 16679 nonzeros
Model fingerprint: 0x304e9232
Variable types: 0 continuous, 2496 integer (2496 binary)
Coefficient statistics:
  Matrix range     [1e+00, 1e+00]
  Objective range  [1e+00, 1e+00]
  Bounds range     [1e+00, 1e+00]
  RHS range        [3e+00, 2e+02]
Presolve removed 975 rows and 975 columns
Presolve time: 0.02s
Presolved: 4359 rows, 1521 columns, 14589 nonzeros
Variable types: 0 continuous, 1521 integer (1521 binary)
Root relaxation presolved: 4359 rows, 1521 columns, 14589 nonzeros


Root relaxation: objective 4.100000e+01, 2682 iterations, 0.36 seconds (0.41 work units)

    Nodes    |    Current Node    |     Objective Bounds      |     Work
 Expl Unexpl |  Obj  Depth IntInf | Incumbent    BestBd   Gap | It/Node Time

     0     0   41.00000    0  781          -   41.00000      -     -    1s
     0     0   41.00000    0  777          -   41.00000      -     -    4s
     0     0   41.00000    0  844          -   41.00000      -     -    4s
     0     0   41.00000    0  793          -   41.00000      -     -    8s
     0     0   41.00000    0  793          -   41.00000      -     -   10s
     0     2   41.00000    0  793          -   41.00000      -     -   14s
     1     4   41.00000    1  896          -   41.00000      -  6523   15s
    15    18   41.00000    4  865          -   41.00000      -  1242   21s
    45    44 infeasible    6               -   41.00000      -  1187   26s
    77    36 infeasible    7               -   41.00000      -  1143   30s
   121    36   41.00000    8  929          -   41.00000      -  1029   36s
   157    48 infeasible    9               -   41.00000      -  1140   40s
   193    72   41.00000   10  992          -   41.00000      -  1450   45s
   305   122   41.00000   12  971          -   41.00000      -  1474   51s
   448   150 infeasible   15               -   41.00000      -  1231   56s
   600   139 infeasible   17               -   41.00000      -  1112   69s
   672   149   41.00000   17 1061          -   41.00000      -  1163   72s
   766   134 infeasible   19               -   41.00000      -  1098   76s
   851   122 infeasible   20               -   41.00000      -  1055   90s
  1036   114   41.00000   19 1146          -   41.00000      -   982   96s
  1137   136 infeasible   20               -   41.00000      -   955  100s
  1348   141 infeasible   24               -   41.00000      -   908  107s
  1460   166 infeasible   21               -   41.00000      -   891  119s
  1581   156   41.00000   25 1130          -   41.00000      -   875  122s
  1823   172 infeasible   25               -   41.00000      -   849  127s
  1967   191 infeasible   20               -   41.00000      -   832  130s
  2269   215 infeasible   22               -   41.00000      -   800  141s
  2480   203   41.00000   26 1052          -   41.00000      -   790  146s
  2692   159 infeasible   27               -   41.00000      -   782  153s
  2906   133   41.00000   35  979          -   41.00000      -   778  157s
  3066    95 infeasible   26               -   41.00000      -   776  160s
  3390    91 infeasible   31               -   41.00000      -   768  168s
  3518    86 infeasible   31               -   41.00000      -   770  172s
  3663    86   41.00000   33 1168          -   41.00000      -   769  175s
  3947    45   41.00000   35 1005          -   41.00000      -   767  182s
  4028    64   41.00000   36 1153          -   41.00000      -   789  185s
  4262    43 infeasible   44               -   41.00000      -   782  190s
  4469     8 infeasible   27               -   41.00000      -   782  196s

Cutting planes:
  Gomory: 1
  Lift-and-project: 3
  Flow cover: 49
  Zero half: 678
  RLT: 325

Explored 4535 nodes (3571246 simplex iterations) in 199.49 seconds (144.91 work units)
Thread count was 64 (of 64 available processors)

Solution count 0
No other solutions better than -1e+100

Model is infeasible
Best objective -, best bound -, gap -
      243.10 - 	Solution num 0:
      243.14 - increase high_eq_constraint to 4

Set parameter Username
Academic license - for non-commercial use only - expires 2022-06-20
Set parameter Threads to value 64
Set parameter MIPFocus to value 3
      243.22 - there are 116 short nonlinear (11) polynomial
Set parameter TimeLimit to value 1800
Gurobi Optimizer version 9.5.0 build v9.5.0rc5 (linux64)
Thread count: 32 physical cores, 64 logical processors, using up to 64 threads
Optimize a model with 5334 rows, 2496 columns and 16679 nonzeros
Model fingerprint: 0xd34eb62e
Variable types: 0 continuous, 2496 integer (2496 binary)
Coefficient statistics:
  Matrix range     [1e+00, 1e+00]
  Objective range  [1e+00, 1e+00]
  Bounds range     [1e+00, 1e+00]
  RHS range        [4e+00, 2e+02]
Presolve removed 975 rows and 975 columns
Presolve time: 0.01s
Presolved: 4359 rows, 1521 columns, 14589 nonzeros
Variable types: 0 continuous, 1521 integer (1521 binary)
Root relaxation presolved: 4359 rows, 1521 columns, 14589 nonzeros


Root relaxation: objective 4.100000e+01, 2844 iterations, 0.24 seconds (0.41 work units)

    Nodes    |    Current Node    |     Objective Bounds      |     Work
 Expl Unexpl |  Obj  Depth IntInf | Incumbent    BestBd   Gap | It/Node Time

     0     0   41.00000    0  837          -   41.00000      -     -    1s
     0     0   41.00000    0  755          -   41.00000      -     -    2s
     0     0   41.00000    0  726          -   41.00000      -     -    2s
     0     0   41.00000    0  667          -   41.00000      -     -    4s
     0     0   41.00000    0  705          -   41.00000      -     -    4s
     0     0   41.00000    0  651          -   41.00000      -     -    5s
     0     0   41.00000    0  651          -   41.00000      -     -    7s
     0     2   41.00000    0  651          -   41.00000      -     -   11s
    15    32   41.00000    4  850          -   41.00000      -  1027   17s
    31    64   41.00000    5  860          -   41.00000      -  1292   20s
    63   128   41.00000    6  982          -   41.00000      -  1058   30s
   127   192   41.00000    7  897          -   41.00000      -  1288   38s
   191   252   41.00000    8 1006          -   41.00000      -  1726   43s
   255   387   41.00000    9  943          -   41.00000      -  1406   47s
   496   468   41.00000   10  825          -   41.00000      -   953   66s
   729   643   41.00000   13 1080          -   41.00000      -  1075   78s
  1336   763   41.00000   15 1027          -   41.00000      -   827   95s
  2072   814   41.00000   16 1175          -   41.00000      -   733  115s
  2731   982   41.00000   22 1044          -   41.00000      -   715  134s
  3579  1165   41.00000   26 1109          -   41.00000      -   684  163s
  4596  1399   41.00000   21 1021          -   41.00000      -   668  184s
  5928  1556 infeasible   25               -   41.00000      -   650  196s
  7433  1695   41.00000   19 1137          -   41.00000      -   642  219s
  9080  1699 infeasible   25               -   41.00000      -   642  243s
 10848  1777   41.00000   12 1051          -   41.00000      -   648  263s
 12650  2083   41.00000   15 1113          -   41.00000      -   653  274s
 14774  2240   41.00000   14 1126          -   41.00000      -   650  298s
 17057  2429 infeasible   19               -   41.00000      -   656  394s
 19180  2599 infeasible   27               -   41.00000      -   697  446s
 21902  2714   41.00000   22 1193          -   41.00000      -   699  461s
 24622  2716   41.00000   28  837          -   41.00000      -   702  465s
 24625  2718   41.00000   16  819          -   41.00000      -   702  473s
 24626  2719   41.00000   22  818          -   41.00000      -   702  480s
 24627  2720   41.00000   19  843          -   41.00000      -   702  486s
 24628  2720   41.00000   27  843          -   41.00000      -   702  496s
 24629  2721   41.00000   27  843          -   41.00000      -   702  501s
 24630  2725   41.00000   13  819          -   41.00000      -   1.7  542s
 24632  2728   41.00000   14  806          -   41.00000      -   1.8  572s
 24636  2735   41.00000   15  804          -   41.00000      -   2.0  587s
 24644  2748   41.00000   16  867          -   41.00000      -   2.4  592s
 24660  2765   41.00000   17  977          -   41.00000      -   3.5  599s
 24687  2756   41.00000   17 1043          -   41.00000      -   4.3  600s
 24692  2791 infeasible   18               -   41.00000      -   4.5  615s
 24746  2773 infeasible   19               -   41.00000      -   7.2  623s
 24810  2776   41.00000   20 1043          -   41.00000      -  11.5  640s
 24874  2758 infeasible   21               -   41.00000      -  14.9  652s
 24938  2769 infeasible   22               -   41.00000      -  17.1  661s
 25002  2776 infeasible   23               -   41.00000      -  20.0  668s
 25080  2774 infeasible   25               -   41.00000      -  24.5  679s
 25159  2807 infeasible   26               -   41.00000      -  28.2  702s
 25359  2853 infeasible   27               -   41.00000      -  36.3  714s
 25689  2776 infeasible   26               -   41.00000      -  54.0  733s
 26059  2848 infeasible   38               -   41.00000      -  66.7  754s
 26860  2697 infeasible   42               -   41.00000      -  86.2  771s
 27882  2572   41.00000   51  931          -   41.00000      -   111  800s
 29027  2378   41.00000   74  851          -   41.00000      -   135  843s
 30415  2005 infeasible   72               -   41.00000      -   162  868s
 31965  1429 infeasible   92               -   41.00000      -   189  893s
 33601  1230   41.00000   85  737          -   41.00000      -   217  921s
 35374  1271   41.00000  106  618          -   41.00000      -   242  966s
 37097  1290   41.00000  103  729          -   41.00000      -   264 1006s
 37710  1375 infeasible   91               -   41.00000      -   272 1054s
 39921  1458 infeasible   45               -   41.00000      -   296 1160s
 42304  1377   41.00000   69  776          -   41.00000      -   318 1214s
 44673  1364   41.00000   55  687          -   41.00000      -   338 1272s
 47076  1367 infeasible   65               -   41.00000      -   356 1318s
 49511  1366   41.00000   66  723          -   41.00000      -   372 1377s
 51896  1303 infeasible   86               -   41.00000      -   388 1465s
 54355  1199 infeasible   88               -   41.00000      -   402 1552s
 56805  1220 infeasible   97               -   41.00000      -   416 1650s
 59278  1182   41.00000   96  688          -   41.00000      -   428 1800s

Cutting planes:
  Flow cover: 160
  Zero half: 1110
  RLT: 1023

Explored 61920 nodes (44550820 simplex iterations) in 1800.23 seconds (1168.88 work units)
Thread count was 64 (of 64 available processors)

Solution count 0

Time limit reached
Best objective -, best bound 4.100000000000e+01, gap -
     2043.77 - best linearization 40


